p cnf 344 2560
1 -209 -145 0
-1 209 -145 0
1 209 -146 0
-1 -209 -146 0
19 -209 -153 0
-19 209 -153 0
19 209 -154 0
-19 -209 -154 0
37 -209 -161 0
-37 209 -161 0
37 209 -162 0
-37 -209 -162 0
55 -209 -169 0
-55 209 -169 0
55 209 -170 0
-55 -209 -170 0
73 -209 -177 0
-73 209 -177 0
73 209 -178 0
-73 -209 -178 0
91 -209 -185 0
-91 209 -185 0
91 209 -186 0
-91 -209 -186 0
109 -209 -193 0
-109 209 -193 0
109 209 -194 0
-109 -209 -194 0
127 -209 -201 0
-127 209 -201 0
127 209 -202 0
-127 -209 -202 0
2 -145 0
2 -146 0
145 -145 0
146 -146 0
20 -153 0
20 -154 0
153 -153 0
154 -154 0
38 -161 0
38 -162 0
161 -161 0
162 -162 0
56 -169 0
56 -170 0
169 -169 0
170 -170 0
74 -177 0
74 -178 0
177 -177 0
178 -178 0
92 -185 0
92 -186 0
185 -185 0
186 -186 0
110 -193 0
110 -194 0
193 -193 0
194 -194 0
128 -201 0
128 -202 0
201 -201 0
202 -202 0
3 -210 -145 0
-3 210 -145 0
3 210 -146 0
-3 -210 -146 0
21 -210 -153 0
-21 210 -153 0
21 210 -154 0
-21 -210 -154 0
39 -210 -161 0
-39 210 -161 0
39 210 -162 0
-39 -210 -162 0
57 -210 -169 0
-57 210 -169 0
57 210 -170 0
-57 -210 -170 0
75 -210 -177 0
-75 210 -177 0
75 210 -178 0
-75 -210 -178 0
93 -210 -185 0
-93 210 -185 0
93 210 -186 0
-93 -210 -186 0
111 -210 -193 0
-111 210 -193 0
111 210 -194 0
-111 -210 -194 0
129 -210 -201 0
-129 210 -201 0
129 210 -202 0
-129 -210 -202 0
4 -145 0
4 -146 0
145 -145 0
146 -146 0
22 -153 0
22 -154 0
153 -153 0
154 -154 0
40 -161 0
40 -162 0
161 -161 0
162 -162 0
58 -169 0
58 -170 0
169 -169 0
170 -170 0
76 -177 0
76 -178 0
177 -177 0
178 -178 0
94 -185 0
94 -186 0
185 -185 0
186 -186 0
112 -193 0
112 -194 0
193 -193 0
194 -194 0
130 -201 0
130 -202 0
201 -201 0
202 -202 0
5 -145 0
5 -146 0
145 -145 0
146 -146 0
23 -153 0
23 -154 0
153 -153 0
154 -154 0
41 -161 0
41 -162 0
161 -161 0
162 -162 0
59 -169 0
59 -170 0
169 -169 0
170 -170 0
77 -177 0
77 -178 0
177 -177 0
178 -178 0
95 -185 0
95 -186 0
185 -185 0
186 -186 0
113 -193 0
113 -194 0
193 -193 0
194 -194 0
131 -201 0
131 -202 0
201 -201 0
202 -202 0
6 -211 -145 0
-6 211 -145 0
6 211 -146 0
-6 -211 -146 0
24 -211 -153 0
-24 211 -153 0
24 211 -154 0
-24 -211 -154 0
42 -211 -161 0
-42 211 -161 0
42 211 -162 0
-42 -211 -162 0
60 -211 -169 0
-60 211 -169 0
60 211 -170 0
-60 -211 -170 0
78 -211 -177 0
-78 211 -177 0
78 211 -178 0
-78 -211 -178 0
96 -211 -185 0
-96 211 -185 0
96 211 -186 0
-96 -211 -186 0
114 -211 -193 0
-114 211 -193 0
114 211 -194 0
-114 -211 -194 0
132 -211 -201 0
-132 211 -201 0
132 211 -202 0
-132 -211 -202 0
7 -212 -145 0
-7 212 -145 0
7 212 -146 0
-7 -212 -146 0
25 -212 -153 0
-25 212 -153 0
25 212 -154 0
-25 -212 -154 0
43 -212 -161 0
-43 212 -161 0
43 212 -162 0
-43 -212 -162 0
61 -212 -169 0
-61 212 -169 0
61 212 -170 0
-61 -212 -170 0
79 -212 -177 0
-79 212 -177 0
79 212 -178 0
-79 -212 -178 0
97 -212 -185 0
-97 212 -185 0
97 212 -186 0
-97 -212 -186 0
115 -212 -193 0
-115 212 -193 0
115 212 -194 0
-115 -212 -194 0
133 -212 -201 0
-133 212 -201 0
133 212 -202 0
-133 -212 -202 0
8 -145 0
8 -146 0
145 -145 0
146 -146 0
26 -153 0
26 -154 0
153 -153 0
154 -154 0
44 -161 0
44 -162 0
161 -161 0
162 -162 0
62 -169 0
62 -170 0
169 -169 0
170 -170 0
80 -177 0
80 -178 0
177 -177 0
178 -178 0
98 -185 0
98 -186 0
185 -185 0
186 -186 0
116 -193 0
116 -194 0
193 -193 0
194 -194 0
134 -201 0
134 -202 0
201 -201 0
202 -202 0
9 -213 -145 0
-9 213 -145 0
9 213 -146 0
-9 -213 -146 0
27 -213 -153 0
-27 213 -153 0
27 213 -154 0
-27 -213 -154 0
45 -213 -161 0
-45 213 -161 0
45 213 -162 0
-45 -213 -162 0
63 -213 -169 0
-63 213 -169 0
63 213 -170 0
-63 -213 -170 0
81 -213 -177 0
-81 213 -177 0
81 213 -178 0
-81 -213 -178 0
99 -213 -185 0
-99 213 -185 0
99 213 -186 0
-99 -213 -186 0
117 -213 -193 0
-117 213 -193 0
117 213 -194 0
-117 -213 -194 0
135 -213 -201 0
-135 213 -201 0
135 213 -202 0
-135 -213 -202 0
10 -214 -145 0
-10 214 -145 0
10 214 -146 0
-10 -214 -146 0
28 -214 -153 0
-28 214 -153 0
28 214 -154 0
-28 -214 -154 0
46 -214 -161 0
-46 214 -161 0
46 214 -162 0
-46 -214 -162 0
64 -214 -169 0
-64 214 -169 0
64 214 -170 0
-64 -214 -170 0
82 -214 -177 0
-82 214 -177 0
82 214 -178 0
-82 -214 -178 0
100 -214 -185 0
-100 214 -185 0
100 214 -186 0
-100 -214 -186 0
118 -214 -193 0
-118 214 -193 0
118 214 -194 0
-118 -214 -194 0
136 -214 -201 0
-136 214 -201 0
136 214 -202 0
-136 -214 -202 0
11 -145 0
11 -146 0
145 -145 0
146 -146 0
29 -153 0
29 -154 0
153 -153 0
154 -154 0
47 -161 0
47 -162 0
161 -161 0
162 -162 0
65 -169 0
65 -170 0
169 -169 0
170 -170 0
83 -177 0
83 -178 0
177 -177 0
178 -178 0
101 -185 0
101 -186 0
185 -185 0
186 -186 0
119 -193 0
119 -194 0
193 -193 0
194 -194 0
137 -201 0
137 -202 0
201 -201 0
202 -202 0
12 -145 0
12 -146 0
145 -145 0
146 -146 0
30 -153 0
30 -154 0
153 -153 0
154 -154 0
48 -161 0
48 -162 0
161 -161 0
162 -162 0
66 -169 0
66 -170 0
169 -169 0
170 -170 0
84 -177 0
84 -178 0
177 -177 0
178 -178 0
102 -185 0
102 -186 0
185 -185 0
186 -186 0
120 -193 0
120 -194 0
193 -193 0
194 -194 0
138 -201 0
138 -202 0
201 -201 0
202 -202 0
13 -145 0
13 -146 0
145 -145 0
146 -146 0
31 -153 0
31 -154 0
153 -153 0
154 -154 0
49 -161 0
49 -162 0
161 -161 0
162 -162 0
67 -169 0
67 -170 0
169 -169 0
170 -170 0
85 -177 0
85 -178 0
177 -177 0
178 -178 0
103 -185 0
103 -186 0
185 -185 0
186 -186 0
121 -193 0
121 -194 0
193 -193 0
194 -194 0
139 -201 0
139 -202 0
201 -201 0
202 -202 0
14 -215 -145 0
-14 215 -145 0
14 215 -146 0
-14 -215 -146 0
32 -215 -153 0
-32 215 -153 0
32 215 -154 0
-32 -215 -154 0
50 -215 -161 0
-50 215 -161 0
50 215 -162 0
-50 -215 -162 0
68 -215 -169 0
-68 215 -169 0
68 215 -170 0
-68 -215 -170 0
86 -215 -177 0
-86 215 -177 0
86 215 -178 0
-86 -215 -178 0
104 -215 -185 0
-104 215 -185 0
104 215 -186 0
-104 -215 -186 0
122 -215 -193 0
-122 215 -193 0
122 215 -194 0
-122 -215 -194 0
140 -215 -201 0
-140 215 -201 0
140 215 -202 0
-140 -215 -202 0
15 -145 0
15 -146 0
145 -145 0
146 -146 0
33 -153 0
33 -154 0
153 -153 0
154 -154 0
51 -161 0
51 -162 0
161 -161 0
162 -162 0
69 -169 0
69 -170 0
169 -169 0
170 -170 0
87 -177 0
87 -178 0
177 -177 0
178 -178 0
105 -185 0
105 -186 0
185 -185 0
186 -186 0
123 -193 0
123 -194 0
193 -193 0
194 -194 0
141 -201 0
141 -202 0
201 -201 0
202 -202 0
16 -216 -145 0
-16 216 -145 0
16 216 -146 0
-16 -216 -146 0
34 -216 -153 0
-34 216 -153 0
34 216 -154 0
-34 -216 -154 0
52 -216 -161 0
-52 216 -161 0
52 216 -162 0
-52 -216 -162 0
70 -216 -169 0
-70 216 -169 0
70 216 -170 0
-70 -216 -170 0
88 -216 -177 0
-88 216 -177 0
88 216 -178 0
-88 -216 -178 0
106 -216 -185 0
-106 216 -185 0
106 216 -186 0
-106 -216 -186 0
124 -216 -193 0
-124 216 -193 0
124 216 -194 0
-124 -216 -194 0
142 -216 -201 0
-142 216 -201 0
142 216 -202 0
-142 -216 -202 0
17 -217 -145 0
-17 217 -145 0
17 217 -146 0
-17 -217 -146 0
35 -217 -153 0
-35 217 -153 0
35 217 -154 0
-35 -217 -154 0
53 -217 -161 0
-53 217 -161 0
53 217 -162 0
-53 -217 -162 0
71 -217 -169 0
-71 217 -169 0
71 217 -170 0
-71 -217 -170 0
89 -217 -177 0
-89 217 -177 0
89 217 -178 0
-89 -217 -178 0
107 -217 -185 0
-107 217 -185 0
107 217 -186 0
-107 -217 -186 0
125 -217 -193 0
-125 217 -193 0
125 217 -194 0
-125 -217 -194 0
143 -217 -201 0
-143 217 -201 0
143 217 -202 0
-143 -217 -202 0
18 -145 0
18 -146 0
145 -145 0
146 -146 0
36 -153 0
36 -154 0
153 -153 0
154 -154 0
54 -161 0
54 -162 0
161 -161 0
162 -162 0
72 -169 0
72 -170 0
169 -169 0
170 -170 0
90 -177 0
90 -178 0
177 -177 0
178 -178 0
108 -185 0
108 -186 0
185 -185 0
186 -186 0
126 -193 0
126 -194 0
193 -193 0
194 -194 0
144 -201 0
144 -202 0
201 -201 0
202 -202 0
-281 145 0
281 -145 0
-282 146 0
281 -146 0
-281 -145 0
-282 -146 0
-289 145 281 0
289 -145 0
289 -281 0
-290 146 282 0
290 -146 0
290 -282 0
-289 -153 0
-290 -154 0
-297 153 289 0
297 -153 0
297 -289 0
-298 154 290 0
298 -154 0
298 -290 0
-297 -161 0
-298 -162 0
-305 161 297 0
305 -161 0
305 -297 0
-306 162 298 0
306 -162 0
306 -298 0
-305 -169 0
-306 -170 0
-313 169 305 0
313 -169 0
313 -305 0
-314 170 306 0
314 -170 0
314 -306 0
-313 -177 0
-314 -178 0
-321 177 313 0
321 -177 0
321 -313 0
-322 178 314 0
322 -178 0
322 -314 0
-321 -185 0
-322 -186 0
-329 185 321 0
329 -185 0
329 -321 0
-330 186 322 0
330 -186 0
330 -322 0
-329 -193 0
-330 -194 0
-337 193 329 0
337 -193 0
337 -329 0
-338 194 330 0
338 -194 0
338 -330 0
-337 -201 0
-338 -202 0
337 0
338 0
1 -218 -147 0
-1 218 -147 0
1 218 -148 0
-1 -218 -148 0
19 -218 -155 0
-19 218 -155 0
19 218 -156 0
-19 -218 -156 0
37 -218 -163 0
-37 218 -163 0
37 218 -164 0
-37 -218 -164 0
55 -218 -171 0
-55 218 -171 0
55 218 -172 0
-55 -218 -172 0
73 -218 -179 0
-73 218 -179 0
73 218 -180 0
-73 -218 -180 0
91 -218 -187 0
-91 218 -187 0
91 218 -188 0
-91 -218 -188 0
109 -218 -195 0
-109 218 -195 0
109 218 -196 0
-109 -218 -196 0
127 -218 -203 0
-127 218 -203 0
127 218 -204 0
-127 -218 -204 0
2 -147 0
2 -148 0
147 -147 0
148 -148 0
20 -155 0
20 -156 0
155 -155 0
156 -156 0
38 -163 0
38 -164 0
163 -163 0
164 -164 0
56 -171 0
56 -172 0
171 -171 0
172 -172 0
74 -179 0
74 -180 0
179 -179 0
180 -180 0
92 -187 0
92 -188 0
187 -187 0
188 -188 0
110 -195 0
110 -196 0
195 -195 0
196 -196 0
128 -203 0
128 -204 0
203 -203 0
204 -204 0
3 -219 -147 0
-3 219 -147 0
3 219 -148 0
-3 -219 -148 0
21 -219 -155 0
-21 219 -155 0
21 219 -156 0
-21 -219 -156 0
39 -219 -163 0
-39 219 -163 0
39 219 -164 0
-39 -219 -164 0
57 -219 -171 0
-57 219 -171 0
57 219 -172 0
-57 -219 -172 0
75 -219 -179 0
-75 219 -179 0
75 219 -180 0
-75 -219 -180 0
93 -219 -187 0
-93 219 -187 0
93 219 -188 0
-93 -219 -188 0
111 -219 -195 0
-111 219 -195 0
111 219 -196 0
-111 -219 -196 0
129 -219 -203 0
-129 219 -203 0
129 219 -204 0
-129 -219 -204 0
4 -147 0
4 -148 0
147 -147 0
148 -148 0
22 -155 0
22 -156 0
155 -155 0
156 -156 0
40 -163 0
40 -164 0
163 -163 0
164 -164 0
58 -171 0
58 -172 0
171 -171 0
172 -172 0
76 -179 0
76 -180 0
179 -179 0
180 -180 0
94 -187 0
94 -188 0
187 -187 0
188 -188 0
112 -195 0
112 -196 0
195 -195 0
196 -196 0
130 -203 0
130 -204 0
203 -203 0
204 -204 0
5 -220 -147 0
-5 220 -147 0
5 220 -148 0
-5 -220 -148 0
23 -220 -155 0
-23 220 -155 0
23 220 -156 0
-23 -220 -156 0
41 -220 -163 0
-41 220 -163 0
41 220 -164 0
-41 -220 -164 0
59 -220 -171 0
-59 220 -171 0
59 220 -172 0
-59 -220 -172 0
77 -220 -179 0
-77 220 -179 0
77 220 -180 0
-77 -220 -180 0
95 -220 -187 0
-95 220 -187 0
95 220 -188 0
-95 -220 -188 0
113 -220 -195 0
-113 220 -195 0
113 220 -196 0
-113 -220 -196 0
131 -220 -203 0
-131 220 -203 0
131 220 -204 0
-131 -220 -204 0
6 -147 0
6 -148 0
147 -147 0
148 -148 0
24 -155 0
24 -156 0
155 -155 0
156 -156 0
42 -163 0
42 -164 0
163 -163 0
164 -164 0
60 -171 0
60 -172 0
171 -171 0
172 -172 0
78 -179 0
78 -180 0
179 -179 0
180 -180 0
96 -187 0
96 -188 0
187 -187 0
188 -188 0
114 -195 0
114 -196 0
195 -195 0
196 -196 0
132 -203 0
132 -204 0
203 -203 0
204 -204 0
-7 -147 0
-7 -148 0
147 -147 0
148 -148 0
-25 -155 0
-25 -156 0
155 -155 0
156 -156 0
-43 -163 0
-43 -164 0
163 -163 0
164 -164 0
-61 -171 0
-61 -172 0
171 -171 0
172 -172 0
-79 -179 0
-79 -180 0
179 -179 0
180 -180 0
-97 -187 0
-97 -188 0
187 -187 0
188 -188 0
-115 -195 0
-115 -196 0
195 -195 0
196 -196 0
-133 -203 0
-133 -204 0
203 -203 0
204 -204 0
8 -147 0
8 -148 0
147 -147 0
148 -148 0
26 -155 0
26 -156 0
155 -155 0
156 -156 0
44 -163 0
44 -164 0
163 -163 0
164 -164 0
62 -171 0
62 -172 0
171 -171 0
172 -172 0
80 -179 0
80 -180 0
179 -179 0
180 -180 0
98 -187 0
98 -188 0
187 -187 0
188 -188 0
116 -195 0
116 -196 0
195 -195 0
196 -196 0
134 -203 0
134 -204 0
203 -203 0
204 -204 0
-9 -147 0
-9 -148 0
147 -147 0
148 -148 0
-27 -155 0
-27 -156 0
155 -155 0
156 -156 0
-45 -163 0
-45 -164 0
163 -163 0
164 -164 0
-63 -171 0
-63 -172 0
171 -171 0
172 -172 0
-81 -179 0
-81 -180 0
179 -179 0
180 -180 0
-99 -187 0
-99 -188 0
187 -187 0
188 -188 0
-117 -195 0
-117 -196 0
195 -195 0
196 -196 0
-135 -203 0
-135 -204 0
203 -203 0
204 -204 0
10 -221 -147 0
-10 221 -147 0
10 221 -148 0
-10 -221 -148 0
28 -221 -155 0
-28 221 -155 0
28 221 -156 0
-28 -221 -156 0
46 -221 -163 0
-46 221 -163 0
46 221 -164 0
-46 -221 -164 0
64 -221 -171 0
-64 221 -171 0
64 221 -172 0
-64 -221 -172 0
82 -221 -179 0
-82 221 -179 0
82 221 -180 0
-82 -221 -180 0
100 -221 -187 0
-100 221 -187 0
100 221 -188 0
-100 -221 -188 0
118 -221 -195 0
-118 221 -195 0
118 221 -196 0
-118 -221 -196 0
136 -221 -203 0
-136 221 -203 0
136 221 -204 0
-136 -221 -204 0
11 -222 -147 0
-11 222 -147 0
11 222 -148 0
-11 -222 -148 0
29 -222 -155 0
-29 222 -155 0
29 222 -156 0
-29 -222 -156 0
47 -222 -163 0
-47 222 -163 0
47 222 -164 0
-47 -222 -164 0
65 -222 -171 0
-65 222 -171 0
65 222 -172 0
-65 -222 -172 0
83 -222 -179 0
-83 222 -179 0
83 222 -180 0
-83 -222 -180 0
101 -222 -187 0
-101 222 -187 0
101 222 -188 0
-101 -222 -188 0
119 -222 -195 0
-119 222 -195 0
119 222 -196 0
-119 -222 -196 0
137 -222 -203 0
-137 222 -203 0
137 222 -204 0
-137 -222 -204 0
12 -147 0
12 -148 0
147 -147 0
148 -148 0
30 -155 0
30 -156 0
155 -155 0
156 -156 0
48 -163 0
48 -164 0
163 -163 0
164 -164 0
66 -171 0
66 -172 0
171 -171 0
172 -172 0
84 -179 0
84 -180 0
179 -179 0
180 -180 0
102 -187 0
102 -188 0
187 -187 0
188 -188 0
120 -195 0
120 -196 0
195 -195 0
196 -196 0
138 -203 0
138 -204 0
203 -203 0
204 -204 0
-13 -147 0
-13 -148 0
147 -147 0
148 -148 0
-31 -155 0
-31 -156 0
155 -155 0
156 -156 0
-49 -163 0
-49 -164 0
163 -163 0
164 -164 0
-67 -171 0
-67 -172 0
171 -171 0
172 -172 0
-85 -179 0
-85 -180 0
179 -179 0
180 -180 0
-103 -187 0
-103 -188 0
187 -187 0
188 -188 0
-121 -195 0
-121 -196 0
195 -195 0
196 -196 0
-139 -203 0
-139 -204 0
203 -203 0
204 -204 0
14 -147 0
14 -148 0
147 -147 0
148 -148 0
32 -155 0
32 -156 0
155 -155 0
156 -156 0
50 -163 0
50 -164 0
163 -163 0
164 -164 0
68 -171 0
68 -172 0
171 -171 0
172 -172 0
86 -179 0
86 -180 0
179 -179 0
180 -180 0
104 -187 0
104 -188 0
187 -187 0
188 -188 0
122 -195 0
122 -196 0
195 -195 0
196 -196 0
140 -203 0
140 -204 0
203 -203 0
204 -204 0
15 -147 0
15 -148 0
147 -147 0
148 -148 0
33 -155 0
33 -156 0
155 -155 0
156 -156 0
51 -163 0
51 -164 0
163 -163 0
164 -164 0
69 -171 0
69 -172 0
171 -171 0
172 -172 0
87 -179 0
87 -180 0
179 -179 0
180 -180 0
105 -187 0
105 -188 0
187 -187 0
188 -188 0
123 -195 0
123 -196 0
195 -195 0
196 -196 0
141 -203 0
141 -204 0
203 -203 0
204 -204 0
16 -147 0
16 -148 0
147 -147 0
148 -148 0
34 -155 0
34 -156 0
155 -155 0
156 -156 0
52 -163 0
52 -164 0
163 -163 0
164 -164 0
70 -171 0
70 -172 0
171 -171 0
172 -172 0
88 -179 0
88 -180 0
179 -179 0
180 -180 0
106 -187 0
106 -188 0
187 -187 0
188 -188 0
124 -195 0
124 -196 0
195 -195 0
196 -196 0
142 -203 0
142 -204 0
203 -203 0
204 -204 0
17 -147 0
17 -148 0
147 -147 0
148 -148 0
35 -155 0
35 -156 0
155 -155 0
156 -156 0
53 -163 0
53 -164 0
163 -163 0
164 -164 0
71 -171 0
71 -172 0
171 -171 0
172 -172 0
89 -179 0
89 -180 0
179 -179 0
180 -180 0
107 -187 0
107 -188 0
187 -187 0
188 -188 0
125 -195 0
125 -196 0
195 -195 0
196 -196 0
143 -203 0
143 -204 0
203 -203 0
204 -204 0
18 -147 0
18 -148 0
147 -147 0
148 -148 0
36 -155 0
36 -156 0
155 -155 0
156 -156 0
54 -163 0
54 -164 0
163 -163 0
164 -164 0
72 -171 0
72 -172 0
171 -171 0
172 -172 0
90 -179 0
90 -180 0
179 -179 0
180 -180 0
108 -187 0
108 -188 0
187 -187 0
188 -188 0
126 -195 0
126 -196 0
195 -195 0
196 -196 0
144 -203 0
144 -204 0
203 -203 0
204 -204 0
-283 147 0
283 -147 0
-284 148 0
283 -148 0
-283 -147 0
-284 -148 0
-291 147 283 0
291 -147 0
291 -283 0
-292 148 284 0
292 -148 0
292 -284 0
-291 -155 0
-292 -156 0
-299 155 291 0
299 -155 0
299 -291 0
-300 156 292 0
300 -156 0
300 -292 0
-299 -163 0
-300 -164 0
-307 163 299 0
307 -163 0
307 -299 0
-308 164 300 0
308 -164 0
308 -300 0
-307 -171 0
-308 -172 0
-315 171 307 0
315 -171 0
315 -307 0
-316 172 308 0
316 -172 0
316 -308 0
-315 -179 0
-316 -180 0
-323 179 315 0
323 -179 0
323 -315 0
-324 180 316 0
324 -180 0
324 -316 0
-323 -187 0
-324 -188 0
-331 187 323 0
331 -187 0
331 -323 0
-332 188 324 0
332 -188 0
332 -324 0
-331 -195 0
-332 -196 0
-339 195 331 0
339 -195 0
339 -331 0
-340 196 332 0
340 -196 0
340 -332 0
-339 -203 0
-340 -204 0
339 0
340 0
1 -223 -149 0
-1 223 -149 0
1 223 -150 0
-1 -223 -150 0
19 -223 -157 0
-19 223 -157 0
19 223 -158 0
-19 -223 -158 0
37 -223 -165 0
-37 223 -165 0
37 223 -166 0
-37 -223 -166 0
55 -223 -173 0
-55 223 -173 0
55 223 -174 0
-55 -223 -174 0
73 -223 -181 0
-73 223 -181 0
73 223 -182 0
-73 -223 -182 0
91 -223 -189 0
-91 223 -189 0
91 223 -190 0
-91 -223 -190 0
109 -223 -197 0
-109 223 -197 0
109 223 -198 0
-109 -223 -198 0
127 -223 -205 0
-127 223 -205 0
127 223 -206 0
-127 -223 -206 0
2 -149 0
2 -150 0
149 -149 0
150 -150 0
20 -157 0
20 -158 0
157 -157 0
158 -158 0
38 -165 0
38 -166 0
165 -165 0
166 -166 0
56 -173 0
56 -174 0
173 -173 0
174 -174 0
74 -181 0
74 -182 0
181 -181 0
182 -182 0
92 -189 0
92 -190 0
189 -189 0
190 -190 0
110 -197 0
110 -198 0
197 -197 0
198 -198 0
128 -205 0
128 -206 0
205 -205 0
206 -206 0
3 -224 -149 0
-3 224 -149 0
3 224 -150 0
-3 -224 -150 0
21 -224 -157 0
-21 224 -157 0
21 224 -158 0
-21 -224 -158 0
39 -224 -165 0
-39 224 -165 0
39 224 -166 0
-39 -224 -166 0
57 -224 -173 0
-57 224 -173 0
57 224 -174 0
-57 -224 -174 0
75 -224 -181 0
-75 224 -181 0
75 224 -182 0
-75 -224 -182 0
93 -224 -189 0
-93 224 -189 0
93 224 -190 0
-93 -224 -190 0
111 -224 -197 0
-111 224 -197 0
111 224 -198 0
-111 -224 -198 0
129 -224 -205 0
-129 224 -205 0
129 224 -206 0
-129 -224 -206 0
4 -225 -149 0
-4 225 -149 0
4 225 -150 0
-4 -225 -150 0
22 -225 -157 0
-22 225 -157 0
22 225 -158 0
-22 -225 -158 0
40 -225 -165 0
-40 225 -165 0
40 225 -166 0
-40 -225 -166 0
58 -225 -173 0
-58 225 -173 0
58 225 -174 0
-58 -225 -174 0
76 -225 -181 0
-76 225 -181 0
76 225 -182 0
-76 -225 -182 0
94 -225 -189 0
-94 225 -189 0
94 225 -190 0
-94 -225 -190 0
112 -225 -197 0
-112 225 -197 0
112 225 -198 0
-112 -225 -198 0
130 -225 -205 0
-130 225 -205 0
130 225 -206 0
-130 -225 -206 0
5 -226 -149 0
-5 226 -149 0
5 226 -150 0
-5 -226 -150 0
23 -226 -157 0
-23 226 -157 0
23 226 -158 0
-23 -226 -158 0
41 -226 -165 0
-41 226 -165 0
41 226 -166 0
-41 -226 -166 0
59 -226 -173 0
-59 226 -173 0
59 226 -174 0
-59 -226 -174 0
77 -226 -181 0
-77 226 -181 0
77 226 -182 0
-77 -226 -182 0
95 -226 -189 0
-95 226 -189 0
95 226 -190 0
-95 -226 -190 0
113 -226 -197 0
-113 226 -197 0
113 226 -198 0
-113 -226 -198 0
131 -226 -205 0
-131 226 -205 0
131 226 -206 0
-131 -226 -206 0
6 -227 -149 0
-6 227 -149 0
6 227 -150 0
-6 -227 -150 0
24 -227 -157 0
-24 227 -157 0
24 227 -158 0
-24 -227 -158 0
42 -227 -165 0
-42 227 -165 0
42 227 -166 0
-42 -227 -166 0
60 -227 -173 0
-60 227 -173 0
60 227 -174 0
-60 -227 -174 0
78 -227 -181 0
-78 227 -181 0
78 227 -182 0
-78 -227 -182 0
96 -227 -189 0
-96 227 -189 0
96 227 -190 0
-96 -227 -190 0
114 -227 -197 0
-114 227 -197 0
114 227 -198 0
-114 -227 -198 0
132 -227 -205 0
-132 227 -205 0
132 227 -206 0
-132 -227 -206 0
7 -228 -149 0
-7 228 -149 0
7 228 -150 0
-7 -228 -150 0
25 -228 -157 0
-25 228 -157 0
25 228 -158 0
-25 -228 -158 0
43 -228 -165 0
-43 228 -165 0
43 228 -166 0
-43 -228 -166 0
61 -228 -173 0
-61 228 -173 0
61 228 -174 0
-61 -228 -174 0
79 -228 -181 0
-79 228 -181 0
79 228 -182 0
-79 -228 -182 0
97 -228 -189 0
-97 228 -189 0
97 228 -190 0
-97 -228 -190 0
115 -228 -197 0
-115 228 -197 0
115 228 -198 0
-115 -228 -198 0
133 -228 -205 0
-133 228 -205 0
133 228 -206 0
-133 -228 -206 0
8 -149 0
8 -150 0
149 -149 0
150 -150 0
26 -157 0
26 -158 0
157 -157 0
158 -158 0
44 -165 0
44 -166 0
165 -165 0
166 -166 0
62 -173 0
62 -174 0
173 -173 0
174 -174 0
80 -181 0
80 -182 0
181 -181 0
182 -182 0
98 -189 0
98 -190 0
189 -189 0
190 -190 0
116 -197 0
116 -198 0
197 -197 0
198 -198 0
134 -205 0
134 -206 0
205 -205 0
206 -206 0
9 -229 -149 0
-9 229 -149 0
9 229 -150 0
-9 -229 -150 0
27 -229 -157 0
-27 229 -157 0
27 229 -158 0
-27 -229 -158 0
45 -229 -165 0
-45 229 -165 0
45 229 -166 0
-45 -229 -166 0
63 -229 -173 0
-63 229 -173 0
63 229 -174 0
-63 -229 -174 0
81 -229 -181 0
-81 229 -181 0
81 229 -182 0
-81 -229 -182 0
99 -229 -189 0
-99 229 -189 0
99 229 -190 0
-99 -229 -190 0
117 -229 -197 0
-117 229 -197 0
117 229 -198 0
-117 -229 -198 0
135 -229 -205 0
-135 229 -205 0
135 229 -206 0
-135 -229 -206 0
-10 -149 0
-10 -150 0
149 -149 0
150 -150 0
-28 -157 0
-28 -158 0
157 -157 0
158 -158 0
-46 -165 0
-46 -166 0
165 -165 0
166 -166 0
-64 -173 0
-64 -174 0
173 -173 0
174 -174 0
-82 -181 0
-82 -182 0
181 -181 0
182 -182 0
-100 -189 0
-100 -190 0
189 -189 0
190 -190 0
-118 -197 0
-118 -198 0
197 -197 0
198 -198 0
-136 -205 0
-136 -206 0
205 -205 0
206 -206 0
11 -230 -149 0
-11 230 -149 0
11 230 -150 0
-11 -230 -150 0
29 -230 -157 0
-29 230 -157 0
29 230 -158 0
-29 -230 -158 0
47 -230 -165 0
-47 230 -165 0
47 230 -166 0
-47 -230 -166 0
65 -230 -173 0
-65 230 -173 0
65 230 -174 0
-65 -230 -174 0
83 -230 -181 0
-83 230 -181 0
83 230 -182 0
-83 -230 -182 0
101 -230 -189 0
-101 230 -189 0
101 230 -190 0
-101 -230 -190 0
119 -230 -197 0
-119 230 -197 0
119 230 -198 0
-119 -230 -198 0
137 -230 -205 0
-137 230 -205 0
137 230 -206 0
-137 -230 -206 0
12 -231 -149 0
-12 231 -149 0
12 231 -150 0
-12 -231 -150 0
30 -231 -157 0
-30 231 -157 0
30 231 -158 0
-30 -231 -158 0
48 -231 -165 0
-48 231 -165 0
48 231 -166 0
-48 -231 -166 0
66 -231 -173 0
-66 231 -173 0
66 231 -174 0
-66 -231 -174 0
84 -231 -181 0
-84 231 -181 0
84 231 -182 0
-84 -231 -182 0
102 -231 -189 0
-102 231 -189 0
102 231 -190 0
-102 -231 -190 0
120 -231 -197 0
-120 231 -197 0
120 231 -198 0
-120 -231 -198 0
138 -231 -205 0
-138 231 -205 0
138 231 -206 0
-138 -231 -206 0
-13 -149 0
-13 -150 0
149 -149 0
150 -150 0
-31 -157 0
-31 -158 0
157 -157 0
158 -158 0
-49 -165 0
-49 -166 0
165 -165 0
166 -166 0
-67 -173 0
-67 -174 0
173 -173 0
174 -174 0
-85 -181 0
-85 -182 0
181 -181 0
182 -182 0
-103 -189 0
-103 -190 0
189 -189 0
190 -190 0
-121 -197 0
-121 -198 0
197 -197 0
198 -198 0
-139 -205 0
-139 -206 0
205 -205 0
206 -206 0
14 -149 0
14 -150 0
149 -149 0
150 -150 0
32 -157 0
32 -158 0
157 -157 0
158 -158 0
50 -165 0
50 -166 0
165 -165 0
166 -166 0
68 -173 0
68 -174 0
173 -173 0
174 -174 0
86 -181 0
86 -182 0
181 -181 0
182 -182 0
104 -189 0
104 -190 0
189 -189 0
190 -190 0
122 -197 0
122 -198 0
197 -197 0
198 -198 0
140 -205 0
140 -206 0
205 -205 0
206 -206 0
15 -232 -149 0
-15 232 -149 0
15 232 -150 0
-15 -232 -150 0
33 -232 -157 0
-33 232 -157 0
33 232 -158 0
-33 -232 -158 0
51 -232 -165 0
-51 232 -165 0
51 232 -166 0
-51 -232 -166 0
69 -232 -173 0
-69 232 -173 0
69 232 -174 0
-69 -232 -174 0
87 -232 -181 0
-87 232 -181 0
87 232 -182 0
-87 -232 -182 0
105 -232 -189 0
-105 232 -189 0
105 232 -190 0
-105 -232 -190 0
123 -232 -197 0
-123 232 -197 0
123 232 -198 0
-123 -232 -198 0
141 -232 -205 0
-141 232 -205 0
141 232 -206 0
-141 -232 -206 0
16 -149 0
16 -150 0
149 -149 0
150 -150 0
34 -157 0
34 -158 0
157 -157 0
158 -158 0
52 -165 0
52 -166 0
165 -165 0
166 -166 0
70 -173 0
70 -174 0
173 -173 0
174 -174 0
88 -181 0
88 -182 0
181 -181 0
182 -182 0
106 -189 0
106 -190 0
189 -189 0
190 -190 0
124 -197 0
124 -198 0
197 -197 0
198 -198 0
142 -205 0
142 -206 0
205 -205 0
206 -206 0
17 -233 -149 0
-17 233 -149 0
17 233 -150 0
-17 -233 -150 0
35 -233 -157 0
-35 233 -157 0
35 233 -158 0
-35 -233 -158 0
53 -233 -165 0
-53 233 -165 0
53 233 -166 0
-53 -233 -166 0
71 -233 -173 0
-71 233 -173 0
71 233 -174 0
-71 -233 -174 0
89 -233 -181 0
-89 233 -181 0
89 233 -182 0
-89 -233 -182 0
107 -233 -189 0
-107 233 -189 0
107 233 -190 0
-107 -233 -190 0
125 -233 -197 0
-125 233 -197 0
125 233 -198 0
-125 -233 -198 0
143 -233 -205 0
-143 233 -205 0
143 233 -206 0
-143 -233 -206 0
18 -149 0
18 -150 0
149 -149 0
150 -150 0
36 -157 0
36 -158 0
157 -157 0
158 -158 0
54 -165 0
54 -166 0
165 -165 0
166 -166 0
72 -173 0
72 -174 0
173 -173 0
174 -174 0
90 -181 0
90 -182 0
181 -181 0
182 -182 0
108 -189 0
108 -190 0
189 -189 0
190 -190 0
126 -197 0
126 -198 0
197 -197 0
198 -198 0
144 -205 0
144 -206 0
205 -205 0
206 -206 0
-285 149 0
285 -149 0
-286 150 0
285 -150 0
-285 -149 0
-286 -150 0
-293 149 285 0
293 -149 0
293 -285 0
-294 150 286 0
294 -150 0
294 -286 0
-293 -157 0
-294 -158 0
-301 157 293 0
301 -157 0
301 -293 0
-302 158 294 0
302 -158 0
302 -294 0
-301 -165 0
-302 -166 0
-309 165 301 0
309 -165 0
309 -301 0
-310 166 302 0
310 -166 0
310 -302 0
-309 -173 0
-310 -174 0
-317 173 309 0
317 -173 0
317 -309 0
-318 174 310 0
318 -174 0
318 -310 0
-317 -181 0
-318 -182 0
-325 181 317 0
325 -181 0
325 -317 0
-326 182 318 0
326 -182 0
326 -318 0
-325 -189 0
-326 -190 0
-333 189 325 0
333 -189 0
333 -325 0
-334 190 326 0
334 -190 0
334 -326 0
-333 -197 0
-334 -198 0
-341 197 333 0
341 -197 0
341 -333 0
-342 198 334 0
342 -198 0
342 -334 0
-341 -205 0
-342 -206 0
341 0
342 0
-1 -151 0
-1 -152 0
151 -151 0
152 -152 0
-19 -159 0
-19 -160 0
159 -159 0
160 -160 0
-37 -167 0
-37 -168 0
167 -167 0
168 -168 0
-55 -175 0
-55 -176 0
175 -175 0
176 -176 0
-73 -183 0
-73 -184 0
183 -183 0
184 -184 0
-91 -191 0
-91 -192 0
191 -191 0
192 -192 0
-109 -199 0
-109 -200 0
199 -199 0
200 -200 0
-127 -207 0
-127 -208 0
207 -207 0
208 -208 0
2 -151 0
2 -152 0
151 -151 0
152 -152 0
20 -159 0
20 -160 0
159 -159 0
160 -160 0
38 -167 0
38 -168 0
167 -167 0
168 -168 0
56 -175 0
56 -176 0
175 -175 0
176 -176 0
74 -183 0
74 -184 0
183 -183 0
184 -184 0
92 -191 0
92 -192 0
191 -191 0
192 -192 0
110 -199 0
110 -200 0
199 -199 0
200 -200 0
128 -207 0
128 -208 0
207 -207 0
208 -208 0
-3 -151 0
-3 -152 0
151 -151 0
152 -152 0
-21 -159 0
-21 -160 0
159 -159 0
160 -160 0
-39 -167 0
-39 -168 0
167 -167 0
168 -168 0
-57 -175 0
-57 -176 0
175 -175 0
176 -176 0
-75 -183 0
-75 -184 0
183 -183 0
184 -184 0
-93 -191 0
-93 -192 0
191 -191 0
192 -192 0
-111 -199 0
-111 -200 0
199 -199 0
200 -200 0
-129 -207 0
-129 -208 0
207 -207 0
208 -208 0
4 -151 0
4 -152 0
151 -151 0
152 -152 0
22 -159 0
22 -160 0
159 -159 0
160 -160 0
40 -167 0
40 -168 0
167 -167 0
168 -168 0
58 -175 0
58 -176 0
175 -175 0
176 -176 0
76 -183 0
76 -184 0
183 -183 0
184 -184 0
94 -191 0
94 -192 0
191 -191 0
192 -192 0
112 -199 0
112 -200 0
199 -199 0
200 -200 0
130 -207 0
130 -208 0
207 -207 0
208 -208 0
5 -151 0
5 -152 0
151 -151 0
152 -152 0
23 -159 0
23 -160 0
159 -159 0
160 -160 0
41 -167 0
41 -168 0
167 -167 0
168 -168 0
59 -175 0
59 -176 0
175 -175 0
176 -176 0
77 -183 0
77 -184 0
183 -183 0
184 -184 0
95 -191 0
95 -192 0
191 -191 0
192 -192 0
113 -199 0
113 -200 0
199 -199 0
200 -200 0
131 -207 0
131 -208 0
207 -207 0
208 -208 0
6 -151 0
6 -152 0
151 -151 0
152 -152 0
24 -159 0
24 -160 0
159 -159 0
160 -160 0
42 -167 0
42 -168 0
167 -167 0
168 -168 0
60 -175 0
60 -176 0
175 -175 0
176 -176 0
78 -183 0
78 -184 0
183 -183 0
184 -184 0
96 -191 0
96 -192 0
191 -191 0
192 -192 0
114 -199 0
114 -200 0
199 -199 0
200 -200 0
132 -207 0
132 -208 0
207 -207 0
208 -208 0
7 -234 -151 0
-7 234 -151 0
7 234 -152 0
-7 -234 -152 0
25 -234 -159 0
-25 234 -159 0
25 234 -160 0
-25 -234 -160 0
43 -234 -167 0
-43 234 -167 0
43 234 -168 0
-43 -234 -168 0
61 -234 -175 0
-61 234 -175 0
61 234 -176 0
-61 -234 -176 0
79 -234 -183 0
-79 234 -183 0
79 234 -184 0
-79 -234 -184 0
97 -234 -191 0
-97 234 -191 0
97 234 -192 0
-97 -234 -192 0
115 -234 -199 0
-115 234 -199 0
115 234 -200 0
-115 -234 -200 0
133 -234 -207 0
-133 234 -207 0
133 234 -208 0
-133 -234 -208 0
8 -151 0
8 -152 0
151 -151 0
152 -152 0
26 -159 0
26 -160 0
159 -159 0
160 -160 0
44 -167 0
44 -168 0
167 -167 0
168 -168 0
62 -175 0
62 -176 0
175 -175 0
176 -176 0
80 -183 0
80 -184 0
183 -183 0
184 -184 0
98 -191 0
98 -192 0
191 -191 0
192 -192 0
116 -199 0
116 -200 0
199 -199 0
200 -200 0
134 -207 0
134 -208 0
207 -207 0
208 -208 0
9 -235 -151 0
-9 235 -151 0
9 235 -152 0
-9 -235 -152 0
27 -235 -159 0
-27 235 -159 0
27 235 -160 0
-27 -235 -160 0
45 -235 -167 0
-45 235 -167 0
45 235 -168 0
-45 -235 -168 0
63 -235 -175 0
-63 235 -175 0
63 235 -176 0
-63 -235 -176 0
81 -235 -183 0
-81 235 -183 0
81 235 -184 0
-81 -235 -184 0
99 -235 -191 0
-99 235 -191 0
99 235 -192 0
-99 -235 -192 0
117 -235 -199 0
-117 235 -199 0
117 235 -200 0
-117 -235 -200 0
135 -235 -207 0
-135 235 -207 0
135 235 -208 0
-135 -235 -208 0
10 -236 -151 0
-10 236 -151 0
10 236 -152 0
-10 -236 -152 0
28 -236 -159 0
-28 236 -159 0
28 236 -160 0
-28 -236 -160 0
46 -236 -167 0
-46 236 -167 0
46 236 -168 0
-46 -236 -168 0
64 -236 -175 0
-64 236 -175 0
64 236 -176 0
-64 -236 -176 0
82 -236 -183 0
-82 236 -183 0
82 236 -184 0
-82 -236 -184 0
100 -236 -191 0
-100 236 -191 0
100 236 -192 0
-100 -236 -192 0
118 -236 -199 0
-118 236 -199 0
118 236 -200 0
-118 -236 -200 0
136 -236 -207 0
-136 236 -207 0
136 236 -208 0
-136 -236 -208 0
11 -151 0
11 -152 0
151 -151 0
152 -152 0
29 -159 0
29 -160 0
159 -159 0
160 -160 0
47 -167 0
47 -168 0
167 -167 0
168 -168 0
65 -175 0
65 -176 0
175 -175 0
176 -176 0
83 -183 0
83 -184 0
183 -183 0
184 -184 0
101 -191 0
101 -192 0
191 -191 0
192 -192 0
119 -199 0
119 -200 0
199 -199 0
200 -200 0
137 -207 0
137 -208 0
207 -207 0
208 -208 0
12 -151 0
12 -152 0
151 -151 0
152 -152 0
30 -159 0
30 -160 0
159 -159 0
160 -160 0
48 -167 0
48 -168 0
167 -167 0
168 -168 0
66 -175 0
66 -176 0
175 -175 0
176 -176 0
84 -183 0
84 -184 0
183 -183 0
184 -184 0
102 -191 0
102 -192 0
191 -191 0
192 -192 0
120 -199 0
120 -200 0
199 -199 0
200 -200 0
138 -207 0
138 -208 0
207 -207 0
208 -208 0
13 -237 -151 0
-13 237 -151 0
13 237 -152 0
-13 -237 -152 0
31 -237 -159 0
-31 237 -159 0
31 237 -160 0
-31 -237 -160 0
49 -237 -167 0
-49 237 -167 0
49 237 -168 0
-49 -237 -168 0
67 -237 -175 0
-67 237 -175 0
67 237 -176 0
-67 -237 -176 0
85 -237 -183 0
-85 237 -183 0
85 237 -184 0
-85 -237 -184 0
103 -237 -191 0
-103 237 -191 0
103 237 -192 0
-103 -237 -192 0
121 -237 -199 0
-121 237 -199 0
121 237 -200 0
-121 -237 -200 0
139 -237 -207 0
-139 237 -207 0
139 237 -208 0
-139 -237 -208 0
14 -151 0
14 -152 0
151 -151 0
152 -152 0
32 -159 0
32 -160 0
159 -159 0
160 -160 0
50 -167 0
50 -168 0
167 -167 0
168 -168 0
68 -175 0
68 -176 0
175 -175 0
176 -176 0
86 -183 0
86 -184 0
183 -183 0
184 -184 0
104 -191 0
104 -192 0
191 -191 0
192 -192 0
122 -199 0
122 -200 0
199 -199 0
200 -200 0
140 -207 0
140 -208 0
207 -207 0
208 -208 0
15 -151 0
15 -152 0
151 -151 0
152 -152 0
33 -159 0
33 -160 0
159 -159 0
160 -160 0
51 -167 0
51 -168 0
167 -167 0
168 -168 0
69 -175 0
69 -176 0
175 -175 0
176 -176 0
87 -183 0
87 -184 0
183 -183 0
184 -184 0
105 -191 0
105 -192 0
191 -191 0
192 -192 0
123 -199 0
123 -200 0
199 -199 0
200 -200 0
141 -207 0
141 -208 0
207 -207 0
208 -208 0
16 -151 0
16 -152 0
151 -151 0
152 -152 0
34 -159 0
34 -160 0
159 -159 0
160 -160 0
52 -167 0
52 -168 0
167 -167 0
168 -168 0
70 -175 0
70 -176 0
175 -175 0
176 -176 0
88 -183 0
88 -184 0
183 -183 0
184 -184 0
106 -191 0
106 -192 0
191 -191 0
192 -192 0
124 -199 0
124 -200 0
199 -199 0
200 -200 0
142 -207 0
142 -208 0
207 -207 0
208 -208 0
17 -151 0
17 -152 0
151 -151 0
152 -152 0
35 -159 0
35 -160 0
159 -159 0
160 -160 0
53 -167 0
53 -168 0
167 -167 0
168 -168 0
71 -175 0
71 -176 0
175 -175 0
176 -176 0
89 -183 0
89 -184 0
183 -183 0
184 -184 0
107 -191 0
107 -192 0
191 -191 0
192 -192 0
125 -199 0
125 -200 0
199 -199 0
200 -200 0
143 -207 0
143 -208 0
207 -207 0
208 -208 0
18 -151 0
18 -152 0
151 -151 0
152 -152 0
36 -159 0
36 -160 0
159 -159 0
160 -160 0
54 -167 0
54 -168 0
167 -167 0
168 -168 0
72 -175 0
72 -176 0
175 -175 0
176 -176 0
90 -183 0
90 -184 0
183 -183 0
184 -184 0
108 -191 0
108 -192 0
191 -191 0
192 -192 0
126 -199 0
126 -200 0
199 -199 0
200 -200 0
144 -207 0
144 -208 0
207 -207 0
208 -208 0
-287 151 0
287 -151 0
-288 152 0
287 -152 0
-287 -151 0
-288 -152 0
-295 151 287 0
295 -151 0
295 -287 0
-296 152 288 0
296 -152 0
296 -288 0
-295 -159 0
-296 -160 0
-303 159 295 0
303 -159 0
303 -295 0
-304 160 296 0
304 -160 0
304 -296 0
-303 -167 0
-304 -168 0
-311 167 303 0
311 -167 0
311 -303 0
-312 168 304 0
312 -168 0
312 -304 0
-311 -175 0
-312 -176 0
-319 175 311 0
319 -175 0
319 -311 0
-320 176 312 0
320 -176 0
320 -312 0
-319 -183 0
-320 -184 0
-327 183 319 0
327 -183 0
327 -319 0
-328 184 320 0
328 -184 0
328 -320 0
-327 -191 0
-328 -192 0
-335 191 327 0
335 -191 0
335 -327 0
-336 192 328 0
336 -192 0
336 -328 0
-335 -199 0
-336 -200 0
-343 199 335 0
343 -199 0
343 -335 0
-344 200 336 0
344 -200 0
344 -336 0
-343 -207 0
-344 -208 0
343 0
344 0
